300
400
319
318
318
317
315
315
314
314
313
312
312
311
311
311
310
310
310
309
308
307
307
307
306
305
305
305
304
304
303
302
301
301
300
297
296
295
292
292
292
291
291
290
290
289
286
285
284
284
283
283
282
282
279
279
278
276
276
271
271
270
268
268
268
266
265
265
264
264
263
263
261
261
261
260
259
258
257
256
255
254
254
253
253
252
252
252
251
250
250
249
247
246
244
244
244
244
244
243
242
241
241
240
239
238
238
238
236
235
235
234
234
233
233
233
232
230
230
230
229
227
227
227
226
225
224
223
222
219
217
217
216
213
213
212
212
211
211
210
210
209
209
209
208
206
206
203
202
201
200
199
199
196
195
195
195
195
195
194
194
194
194
192
191
191
189
188
187
187
187
187
186
186
186
185
184
184
183
182
181
181
180
179
178
177
175
175
174
173
173
171
170
166
164
164
162
162
161
160
159
159
159
159
158
157
156
155
155
150
150
149
148
148
148
147
147
146
146
146
145
144
144
140
140
139
138
138
137
136
134
131
130
130
130
130
129
129
128
128
127
127
126
125
125
124
124
124
122
122
122
121
120
120
120
117
116
115
115
115
115
113
111
111
111
110
110
106
105
105
105
104
103
102
101
101
101
97
97
97
97
97
96
95
95
95
94
94
93
92
91
90
90
90
90
89
85
83
82
82
82
81
